\* ILP *\
Maximize
Obj: 10.5835978989 yv_0_0 + 2.57323251333 yv_0_1 + 0.625640319191 yv_0_2
 + 0.152114434653 yv_0_3 + 13.8941677731 yv_10_0 + 3.37814461593 yv_10_1
 + 0.82134182 yv_10_2 + 0.199696123754 yv_10_3 + 10.9478884063 yv_11_0
 + 2.6618039223 yv_11_1 + 0.647175040322 yv_11_2 + 0.157350257585 yv_11_3
 + 8.59597776209 yv_12_0 + 2.0899744749 yv_12_1 + 0.50814385828 yv_12_2
 + 0.123547049885 yv_12_3 + 1.58498326022 yv_13_0 + 0.385363323252 yv_13_1
 + 0.0936949270285 yv_13_2 + 0.0227804225809 yv_13_3 + 1.93649164455 yv_14_0
 + 0.47082696349 yv_14_1 + 0.11447404391 yv_14_2 + 0.0278325324275 yv_14_3
 + 22.2679732869 yv_15_0 + 3.75363783948 yv_15_1 + 0.632738186293 yv_15_2
 + 0.106658561511 yv_15_3 + 0.658216581922 yv_16_0 + 0.110953369516 yv_16_1
 + 0.0187030387035 yv_16_2 + 0.00315270873044 yv_16_3 + 18.1363984342 yv_17_0
 + 3.0571920739 yv_17_1 + 0.515340651046 yv_17_2 + 0.0868692513265 yv_17_3
 + 16.0908638258 yv_18_0 + 2.71238314094 yv_18_1 + 0.457217361537 yv_18_2
 + 0.0770716026565 yv_18_3 + 12.7288960535 yv_19_0 + 2.14566746895 yv_19_1
 + 0.361687994621 yv_19_2 + 0.0609685365256 yv_19_3 + 4.32674865795 yv_1_0
 + 1.0519797171 yv_1_1 + 0.255772038703 yv_1_2 + 0.0621868793843 yv_1_3
 + 18.4300642938 yv_20_0 + 3.10669434645 yv_20_1 + 0.523685083699 yv_20_2
 + 0.0882758444524 yv_20_3 + 14.0250763994 yv_21_0 + 2.36416025815 yv_21_1
 + 0.398518593914 yv_21_2 + 0.0671769475641 yv_21_3 + 4.43536712126 yv_22_0
 + 0.747655013047 yv_22_1 + 0.126029706956 yv_22_2 + 0.0212444065221 yv_22_3
 + 14.6225345276 yv_23_0 + 2.46487177817 yv_23_1 + 0.415495198275 yv_23_2
 + 0.0700386370271 yv_23_3 + 4.5973896645 yv_24_0 + 0.774966611698 yv_24_1
 + 0.130633531868 yv_24_2 + 0.0220204579019 yv_24_3 + 6.14181013336 yv_25_0
 + 1.4932828776 yv_25_1 + 0.363067842236 yv_25_2 + 0.0882741375012 yv_25_3
 + 18.3288002043 yv_26_0 + 3.0896245973 yv_26_1 + 0.520807693129 yv_26_2
 + 0.08779081234 yv_26_3 + 4.83164251907 yv_27_0 + 1.17473658217 yv_27_1
 + 0.285618406587 yv_27_2 + 0.0694435462548 yv_27_3 + 6.55083807148 yv_28_0
 + 1.59273147715 yv_28_1 + 0.387247178243 yv_28_2 + 0.0941529562317 yv_28_3
 + 6.72393554456 yv_29_0 + 1.13343134398 yv_29_1 + 0.191058733833 yv_29_2
 + 0.0322061322618 yv_29_3 + 8.16777663937 yv_2_0 + 1.98586422224 yv_2_1
 + 0.482831115897 yv_2_2 + 0.117392661526 yv_2_3 + 6.43026968493 yv_30_0
 + 1.08392907143 yv_30_1 + 0.182714301181 yv_30_2 + 0.0307995391359 yv_30_3
 + 9.53907723339 yv_31_0 + 1.60797037053 yv_31_1 + 0.271050191673 yv_31_2
 + 0.0456900249858 yv_31_3 + 18.7946150161 yv_32_0 + 3.16814544342 yv_32_1
 + 0.53404368975 yv_32_2 + 0.090021960057 yv_32_3 + 18.0958927984 yv_33_0
 + 3.05036417424 yv_33_1 + 0.514189694819 yv_33_2 + 0.0866752384816 yv_33_3
 + 6.14673023426 yv_34_0 + 1.03613377379 yv_34_1 + 0.174657607585 yv_34_2
 + 0.0294414492212 yv_34_3 + 5.84293796568 yv_35_0 + 0.98492452632 yv_35_1
 + 0.166025435876 yv_35_2 + 0.0279863528841 yv_35_3 + 6.61254504608 yv_36_0
 + 1.11465461991 yv_36_1 + 0.187893604206 yv_36_2 + 0.0316725969381 yv_36_3
 + 19.7768766845 yv_37_0 + 3.33372201023 yv_37_1 + 0.561954378277 yv_37_2
 + 0.094726771547 yv_37_3 + 14.9567060231 yv_38_0 + 2.52120195039 yv_38_1
 + 0.424990587156 yv_38_2 + 0.0716392429979 yv_38_3 + 0.268424584393 yv_39_0
 + 0.065263143454 yv_39_1 + 0.0158676892548 yv_39_2 + 0.00385797479193 yv_39_3
 + 9.5993744228 yv_3_0 + 2.33393432066 yv_3_1 + 0.567458791923 yv_3_2
 + 0.137968527083 yv_3_3 + 12.8971621739 yv_4_0 + 3.13573865453 yv_4_1
 + 0.762404688482 yv_4_2 + 0.185366503098 yv_4_3 + 11.17157556 yv_5_0
 + 2.71618987518 yv_5_1 + 0.660398114701 yv_5_2 + 0.160565236579 yv_5_3
 + 9.32455877687 yv_6_0 + 2.26711729284 yv_6_1 + 0.551213300543 yv_6_2
 + 0.134018695748 yv_6_3 + 5.19593302646 yv_7_0 + 1.26330799115 yv_7_1
 + 0.307153127719 yv_7_2 + 0.0746793691867 yv_7_3 + 9.79749733033 yv_8_0
 + 2.38210473607 yv_8_1 + 0.579170657801 yv_8_2 + 0.140816079906 yv_8_3
 + 20.7996439887 yv_9_0 + 3.50612647671 yv_9_1 + 0.591016023032 yv_9_2
 + 0.099625595882 yv_9_3
Subject To
_C1: sv_0 + sv_1 + sv_10 + sv_11 + sv_12 + sv_13 + sv_14 + sv_15 + sv_16
 + sv_17 + sv_18 + sv_19 + sv_2 + sv_20 + sv_21 + sv_22 + sv_23 + sv_24
 + sv_25 + sv_26 + sv_27 + sv_28 + sv_29 + sv_3 + sv_30 + sv_31 + sv_32
 + sv_33 + sv_34 + sv_35 + sv_36 + sv_37 + sv_38 + sv_39 + sv_4 + sv_5 + sv_6
 + sv_7 + sv_8 + sv_9 = 4
_C10: sv_8 <= 3
_C11: sv_9 <= 3
_C12: sv_10 <= 3
_C13: sv_11 <= 3
_C14: sv_12 <= 3
_C15: sv_13 <= 3
_C16: sv_14 <= 3
_C17: sv_15 <= 3
_C18: sv_16 <= 3
_C19: sv_17 <= 3
_C2: sv_0 <= 3
_C20: sv_18 <= 3
_C21: sv_19 <= 3
_C22: sv_20 <= 3
_C23: sv_21 <= 3
_C24: sv_22 <= 3
_C25: sv_23 <= 3
_C26: sv_24 <= 3
_C27: sv_25 <= 3
_C28: sv_26 <= 3
_C29: sv_27 <= 3
_C3: sv_1 <= 3
_C30: sv_28 <= 3
_C31: sv_29 <= 3
_C32: sv_30 <= 3
_C33: sv_31 <= 3
_C34: sv_32 <= 3
_C35: sv_33 <= 3
_C36: sv_34 <= 3
_C37: sv_35 <= 3
_C38: sv_36 <= 3
_C39: sv_37 <= 3
_C4: sv_2 <= 3
_C40: sv_38 <= 3
_C41: sv_39 <= 3
_C42: sv_0 + sv_1 + sv_10 + sv_11 + sv_12 + sv_13 + sv_14 + sv_15 + sv_16
 + sv_17 + sv_19 + sv_2 + sv_28 + sv_3 + sv_31 + sv_32 + sv_33 + sv_34 + sv_35
 + sv_36 + sv_39 + sv_4 + sv_5 + sv_6 + sv_7 + sv_8 + sv_9 - yv_0_0 - yv_0_1
 - yv_0_2 - yv_0_3 >= 0
_C43: sv_0 + sv_1 + sv_10 + sv_11 + sv_12 + sv_13 + sv_15 + sv_16 + sv_17
 + sv_19 + sv_2 + sv_22 + sv_23 + sv_24 + sv_3 + sv_31 + sv_32 + sv_33 + sv_34
 + sv_35 + sv_36 + sv_4 + sv_5 + sv_6 + sv_7 + sv_8 + sv_9 - yv_1_0 - yv_1_1
 - yv_1_2 - yv_1_3 >= 0
_C44: sv_0 + sv_1 + sv_10 + sv_11 + sv_12 + sv_13 + sv_15 + sv_16 + sv_17
 + sv_19 + sv_2 + sv_22 + sv_23 + sv_3 + sv_31 + sv_32 + sv_33 + sv_34 + sv_36
 + sv_39 + sv_4 + sv_5 + sv_6 + sv_7 + sv_8 + sv_9 - yv_2_0 - yv_2_1 - yv_2_2
 - yv_2_3 >= 0
_C45: sv_0 + sv_1 + sv_10 + sv_11 + sv_12 + sv_13 + sv_14 + sv_15 + sv_16
 + sv_17 + sv_19 + sv_2 + sv_22 + sv_3 + sv_31 + sv_32 + sv_33 + sv_34 + sv_35
 + sv_36 + sv_39 + sv_4 + sv_5 + sv_6 + sv_7 + sv_8 + sv_9 - yv_3_0 - yv_3_1
 - yv_3_2 - yv_3_3 >= 0
_C46: sv_0 + sv_1 + sv_10 + sv_11 + sv_12 + sv_13 + sv_14 + sv_15 + sv_16
 + sv_2 + sv_28 + sv_3 + sv_31 + sv_32 + sv_33 + sv_34 + sv_35 + sv_36 + sv_39
 + sv_4 + sv_5 + sv_6 + sv_7 + sv_8 + sv_9 - yv_4_0 - yv_4_1 - yv_4_2 - yv_4_3
 >= 0
_C47: sv_0 + sv_1 + sv_10 + sv_11 + sv_12 + sv_13 + sv_14 + sv_15 + sv_16
 + sv_2 + sv_25 + sv_28 + sv_3 + sv_31 + sv_32 + sv_33 + sv_34 + sv_35 + sv_36
 + sv_39 + sv_4 + sv_5 + sv_6 + sv_7 + sv_8 + sv_9 - yv_5_0 - yv_5_1 - yv_5_2
 - yv_5_3 >= 0
_C48: sv_0 + sv_1 + sv_10 + sv_11 + sv_12 + sv_13 + sv_14 + sv_15 + sv_16
 + sv_17 + sv_19 + sv_2 + sv_23 + sv_25 + sv_27 + sv_28 + sv_3 + sv_31 + sv_32
 + sv_33 + sv_34 + sv_35 + sv_36 + sv_37 + sv_38 + sv_39 + sv_4 + sv_5 + sv_6
 + sv_7 + sv_8 + sv_9 - yv_6_0 - yv_6_1 - yv_6_2 - yv_6_3 >= 0
_C49: sv_0 + sv_1 + sv_10 + sv_11 + sv_12 + sv_13 + sv_14 + sv_15 + sv_16
 + sv_19 + sv_25 + sv_26 + sv_27 + sv_28 + sv_29 + sv_3 + sv_30 + sv_31
 + sv_32 + sv_33 + sv_34 + sv_35 + sv_36 + sv_37 + sv_38 + sv_4 + sv_5 + sv_6
 + sv_7 + sv_8 + sv_9 - yv_7_0 - yv_7_1 - yv_7_2 - yv_7_3 >= 0
_C5: sv_3 <= 3
_C50: sv_0 + sv_1 + sv_10 + sv_11 + sv_12 + sv_13 + sv_14 + sv_15 + sv_16
 + sv_17 + sv_18 + sv_19 + sv_2 + sv_22 + sv_23 + sv_3 + sv_31 + sv_32 + sv_33
 + sv_34 + sv_35 + sv_36 + sv_37 + sv_4 + sv_5 + sv_6 + sv_7 + sv_8 + sv_9
 - yv_8_0 - yv_8_1 - yv_8_2 - yv_8_3 >= 0
_C51: sv_0 + sv_1 + sv_10 + sv_12 + sv_13 + sv_14 + sv_15 + sv_16 + sv_17
 + sv_18 + sv_19 + sv_2 + sv_20 + sv_21 + sv_22 + sv_23 + sv_24 + sv_25
 + sv_27 + sv_28 + sv_3 + sv_30 + sv_31 + sv_32 + sv_33 + sv_34 + sv_35
 + sv_36 + sv_37 + sv_38 + sv_4 + sv_5 + sv_6 + sv_7 + sv_8 + sv_9 - yv_9_0
 - yv_9_1 - yv_9_2 - yv_9_3 >= 0
_C52: sv_0 + sv_1 + sv_10 + sv_12 + sv_13 + sv_14 + sv_15 + sv_16 + sv_17
 + sv_18 + sv_19 + sv_2 + sv_20 + sv_21 + sv_22 + sv_23 + sv_24 + sv_3 + sv_31
 + sv_32 + sv_33 + sv_34 + sv_35 + sv_36 + sv_37 + sv_4 + sv_5 + sv_6 + sv_7
 + sv_8 + sv_9 - yv_10_0 - yv_10_1 - yv_10_2 - yv_10_3 >= 0
_C53: sv_0 + sv_1 + sv_11 + sv_12 + sv_13 + sv_2 + sv_3 + sv_39 + sv_4 + sv_5
 + sv_6 + sv_8 - yv_11_0 - yv_11_1 - yv_11_2 - yv_11_3 >= 0
_C54: sv_0 + sv_1 + sv_10 + sv_11 + sv_12 + sv_13 + sv_14 + sv_2 + sv_25
 + sv_27 + sv_28 + sv_3 + sv_31 + sv_32 + sv_33 + sv_34 + sv_35 + sv_36
 + sv_39 + sv_4 + sv_5 + sv_6 + sv_7 + sv_8 + sv_9 - yv_12_0 - yv_12_1
 - yv_12_2 - yv_12_3 >= 0
_C55: sv_0 + sv_1 + sv_10 + sv_11 + sv_12 + sv_13 + sv_14 + sv_15 + sv_16
 + sv_17 + sv_19 + sv_2 + sv_25 + sv_27 + sv_28 + sv_3 + sv_31 + sv_32 + sv_33
 + sv_34 + sv_35 + sv_36 + sv_38 + sv_39 + sv_4 + sv_5 + sv_6 + sv_7 + sv_8
 + sv_9 - yv_13_0 - yv_13_1 - yv_13_2 - yv_13_3 >= 0
_C56: sv_0 + sv_10 + sv_12 + sv_13 + sv_14 + sv_15 + sv_25 + sv_26 + sv_27
 + sv_28 + sv_29 + sv_3 + sv_30 + sv_31 + sv_32 + sv_33 + sv_34 + sv_35
 + sv_36 + sv_37 + sv_38 + sv_4 + sv_5 + sv_6 + sv_7 + sv_8 + sv_9 - yv_14_0
 - yv_14_1 - yv_14_2 - yv_14_3 >= 0
_C57: sv_0 + sv_1 + sv_10 + sv_13 + sv_14 + sv_15 + sv_16 + sv_17 + sv_18
 + sv_19 + sv_2 + sv_20 + sv_21 + sv_22 + sv_23 + sv_24 + sv_29 + sv_3 + sv_30
 + sv_31 + sv_32 + sv_33 + sv_34 + sv_35 + sv_36 + sv_37 + sv_38 + sv_4 + sv_5
 + sv_6 + sv_7 + sv_8 + sv_9 - yv_15_0 - yv_15_1 - yv_15_2 - yv_15_3 >= 0
_C58: sv_0 + sv_1 + sv_10 + sv_13 + sv_15 + sv_16 + sv_17 + sv_18 + sv_19
 + sv_2 + sv_20 + sv_21 + sv_22 + sv_23 + sv_24 + sv_3 + sv_30 + sv_31 + sv_32
 + sv_33 + sv_34 + sv_35 + sv_36 + sv_37 + sv_38 + sv_4 + sv_5 + sv_6 + sv_7
 + sv_8 + sv_9 - yv_16_0 - yv_16_1 - yv_16_2 - yv_16_3 >= 0
_C59: sv_0 + sv_1 + sv_10 + sv_13 + sv_15 + sv_16 + sv_17 + sv_18 + sv_19
 + sv_20 + sv_21 + sv_22 + sv_23 + sv_24 + sv_30 + sv_31 + sv_32 + sv_33
 + sv_34 + sv_35 + sv_36 + sv_37 + sv_38 + sv_6 + sv_7 + sv_8 + sv_9 - yv_17_0
 - yv_17_1 - yv_17_2 - yv_17_3 >= 0
_C6: sv_4 <= 3
_C60: sv_10 + sv_15 + sv_16 + sv_17 + sv_18 + sv_19 + sv_20 + sv_21 + sv_22
 + sv_23 + sv_24 + sv_31 + sv_32 + sv_33 + sv_34 + sv_35 + sv_36 + sv_37
 + sv_38 + sv_9 - yv_18_0 - yv_18_1 - yv_18_2 - yv_18_3 >= 0
_C61: sv_0 + sv_1 + sv_10 + sv_13 + sv_14 + sv_15 + sv_16 + sv_17 + sv_18
 + sv_19 + sv_20 + sv_21 + sv_22 + sv_23 + sv_24 + sv_29 + sv_3 + sv_30
 + sv_31 + sv_32 + sv_33 + sv_34 + sv_35 + sv_36 + sv_37 + sv_38 + sv_6 + sv_7
 + sv_8 + sv_9 - yv_19_0 - yv_19_1 - yv_19_2 - yv_19_3 >= 0
_C62: sv_15 + sv_16 + sv_17 + sv_18 + sv_19 + sv_20 + sv_21 + sv_22 + sv_23
 + sv_24 + sv_31 + sv_32 + sv_33 + sv_34 + sv_35 + sv_37 + sv_9 - yv_20_0
 - yv_20_1 - yv_20_2 - yv_20_3 >= 0
_C63: sv_10 + sv_15 + sv_16 + sv_17 + sv_18 + sv_19 + sv_20 + sv_21 + sv_22
 + sv_23 + sv_24 + sv_31 + sv_32 + sv_33 + sv_37 + sv_9 - yv_21_0 - yv_21_1
 - yv_21_2 - yv_21_3 >= 0
_C64: sv_10 + sv_15 + sv_16 + sv_17 + sv_18 + sv_19 + sv_20 + sv_21 + sv_22
 + sv_23 + sv_24 + sv_31 + sv_32 + sv_33 + sv_34 + sv_36 + sv_37 + sv_9
 - yv_22_0 - yv_22_1 - yv_22_2 - yv_22_3 >= 0
_C65: sv_10 + sv_15 + sv_16 + sv_17 + sv_18 + sv_19 + sv_20 + sv_21 + sv_22
 + sv_23 + sv_24 + sv_31 + sv_32 + sv_33 + sv_34 + sv_35 + sv_36 + sv_37
 + sv_8 + sv_9 - yv_23_0 - yv_23_1 - yv_23_2 - yv_23_3 >= 0
_C66: sv_10 + sv_15 + sv_16 + sv_17 + sv_18 + sv_19 + sv_20 + sv_21 + sv_22
 + sv_23 + sv_24 + sv_31 + sv_32 + sv_33 + sv_37 + sv_9 - yv_24_0 - yv_24_1
 - yv_24_2 - yv_24_3 >= 0
_C67: sv_12 + sv_13 + sv_14 + sv_25 + sv_26 + sv_27 + sv_28 + sv_29 + sv_30
 + sv_31 + sv_32 + sv_33 + sv_34 + sv_35 + sv_36 + sv_38 + sv_6 + sv_7 + sv_9
 - yv_25_0 - yv_25_1 - yv_25_2 - yv_25_3 >= 0
_C68: sv_14 + sv_25 + sv_26 + sv_27 + sv_28 + sv_29 + sv_30 + sv_31 + sv_32
 + sv_34 + sv_35 + sv_36 + sv_38 + sv_7 - yv_26_0 - yv_26_1 - yv_26_2
 - yv_26_3 >= 0
_C69: sv_12 + sv_13 + sv_14 + sv_25 + sv_26 + sv_27 + sv_28 + sv_29 + sv_30
 + sv_31 + sv_32 + sv_33 + sv_34 + sv_35 + sv_36 + sv_38 + sv_6 + sv_7 + sv_9
 - yv_27_0 - yv_27_1 - yv_27_2 - yv_27_3 >= 0
_C7: sv_5 <= 3
_C70: sv_0 + sv_12 + sv_13 + sv_14 + sv_25 + sv_26 + sv_27 + sv_28 + sv_29
 + sv_30 + sv_32 + sv_33 + sv_34 + sv_35 + sv_36 + sv_38 + sv_4 + sv_5 + sv_6
 + sv_7 + sv_9 - yv_28_0 - yv_28_1 - yv_28_2 - yv_28_3 >= 0
_C71: sv_14 + sv_25 + sv_26 + sv_27 + sv_28 + sv_29 + sv_30 + sv_31 + sv_32
 + sv_33 + sv_34 + sv_35 + sv_36 + sv_37 + sv_38 + sv_7 - yv_29_0 - yv_29_1
 - yv_29_2 - yv_29_3 >= 0
_C72: sv_14 + sv_15 + sv_16 + sv_17 + sv_18 + sv_19 + sv_25 + sv_26 + sv_27
 + sv_28 + sv_29 + sv_30 + sv_31 + sv_32 + sv_33 + sv_34 + sv_35 + sv_36
 + sv_37 + sv_38 + sv_7 + sv_9 - yv_30_0 - yv_30_1 - yv_30_2 - yv_30_3 >= 0
_C73: sv_0 + sv_1 + sv_10 + sv_12 + sv_13 + sv_14 + sv_15 + sv_16 + sv_17
 + sv_18 + sv_19 + sv_20 + sv_21 + sv_22 + sv_23 + sv_24 + sv_25 + sv_26
 + sv_27 + sv_29 + sv_3 + sv_30 + sv_31 + sv_32 + sv_33 + sv_34 + sv_35
 + sv_36 + sv_37 + sv_38 + sv_4 + sv_5 + sv_6 + sv_7 + sv_8 + sv_9 - yv_31_0
 - yv_31_1 - yv_31_2 - yv_31_3 >= 0
_C74: sv_0 + sv_1 + sv_10 + sv_12 + sv_13 + sv_14 + sv_15 + sv_16 + sv_17
 + sv_18 + sv_19 + sv_2 + sv_20 + sv_21 + sv_22 + sv_23 + sv_24 + sv_25
 + sv_26 + sv_27 + sv_28 + sv_29 + sv_3 + sv_30 + sv_31 + sv_32 + sv_33
 + sv_34 + sv_35 + sv_36 + sv_37 + sv_38 + sv_4 + sv_5 + sv_6 + sv_7 + sv_8
 + sv_9 - yv_32_0 - yv_32_1 - yv_32_2 - yv_32_3 >= 0
_C75: sv_0 + sv_1 + sv_10 + sv_12 + sv_13 + sv_14 + sv_15 + sv_16 + sv_17
 + sv_18 + sv_19 + sv_2 + sv_20 + sv_21 + sv_22 + sv_23 + sv_24 + sv_25
 + sv_27 + sv_28 + sv_29 + sv_3 + sv_30 + sv_31 + sv_32 + sv_33 + sv_34
 + sv_35 + sv_36 + sv_37 + sv_38 + sv_4 + sv_5 + sv_6 + sv_7 + sv_8 + sv_9
 - yv_33_0 - yv_33_1 - yv_33_2 - yv_33_3 >= 0
_C76: sv_0 + sv_1 + sv_10 + sv_12 + sv_13 + sv_14 + sv_15 + sv_16 + sv_17
 + sv_18 + sv_19 + sv_2 + sv_20 + sv_22 + sv_23 + sv_25 + sv_26 + sv_27
 + sv_28 + sv_29 + sv_3 + sv_30 + sv_31 + sv_32 + sv_33 + sv_34 + sv_35
 + sv_36 + sv_37 + sv_38 + sv_4 + sv_5 + sv_6 + sv_7 + sv_8 + sv_9 - yv_34_0
 - yv_34_1 - yv_34_2 - yv_34_3 >= 0
_C77: sv_0 + sv_1 + sv_10 + sv_12 + sv_13 + sv_14 + sv_15 + sv_16 + sv_17
 + sv_18 + sv_19 + sv_20 + sv_22 + sv_23 + sv_25 + sv_26 + sv_27 + sv_28
 + sv_29 + sv_3 + sv_30 + sv_31 + sv_32 + sv_33 + sv_34 + sv_35 + sv_36
 + sv_37 + sv_38 + sv_4 + sv_5 + sv_6 + sv_7 + sv_8 + sv_9 - yv_35_0 - yv_35_1
 - yv_35_2 - yv_35_3 >= 0
_C78: sv_0 + sv_1 + sv_10 + sv_12 + sv_13 + sv_14 + sv_15 + sv_16 + sv_17
 + sv_18 + sv_19 + sv_2 + sv_22 + sv_23 + sv_25 + sv_26 + sv_27 + sv_28
 + sv_29 + sv_3 + sv_30 + sv_31 + sv_32 + sv_33 + sv_34 + sv_35 + sv_36
 + sv_37 + sv_38 + sv_4 + sv_5 + sv_6 + sv_7 + sv_8 + sv_9 - yv_36_0 - yv_36_1
 - yv_36_2 - yv_36_3 >= 0
_C79: sv_10 + sv_14 + sv_15 + sv_16 + sv_17 + sv_18 + sv_19 + sv_20 + sv_21
 + sv_22 + sv_23 + sv_24 + sv_26 + sv_29 + sv_30 + sv_31 + sv_32 + sv_33
 + sv_34 + sv_35 + sv_36 + sv_37 + sv_38 + sv_6 + sv_7 + sv_8 + sv_9 - yv_37_0
 - yv_37_1 - yv_37_2 - yv_37_3 >= 0
_C8: sv_6 <= 3
_C80: sv_13 + sv_14 + sv_15 + sv_16 + sv_17 + sv_18 + sv_19 + sv_25 + sv_26
 + sv_27 + sv_28 + sv_29 + sv_30 + sv_31 + sv_32 + sv_33 + sv_34 + sv_35
 + sv_36 + sv_37 + sv_38 + sv_6 + sv_7 + sv_9 - yv_38_0 - yv_38_1 - yv_38_2
 - yv_38_3 >= 0
_C81: sv_0 + sv_11 + sv_12 + sv_13 + sv_2 + sv_3 + sv_39 + sv_4 + sv_5 + sv_6
 - yv_39_0 - yv_39_1 - yv_39_2 - yv_39_3 >= 0
_C9: sv_7 <= 3
Bounds
0 <= sv_0 <= 4
0 <= sv_1 <= 4
0 <= sv_10 <= 4
0 <= sv_11 <= 4
0 <= sv_12 <= 4
0 <= sv_13 <= 4
0 <= sv_14 <= 4
0 <= sv_15 <= 4
0 <= sv_16 <= 4
0 <= sv_17 <= 4
0 <= sv_18 <= 4
0 <= sv_19 <= 4
0 <= sv_2 <= 4
0 <= sv_20 <= 4
0 <= sv_21 <= 4
0 <= sv_22 <= 4
0 <= sv_23 <= 4
0 <= sv_24 <= 4
0 <= sv_25 <= 4
0 <= sv_26 <= 4
0 <= sv_27 <= 4
0 <= sv_28 <= 4
0 <= sv_29 <= 4
0 <= sv_3 <= 4
0 <= sv_30 <= 4
0 <= sv_31 <= 4
0 <= sv_32 <= 4
0 <= sv_33 <= 4
0 <= sv_34 <= 4
0 <= sv_35 <= 4
0 <= sv_36 <= 4
0 <= sv_37 <= 4
0 <= sv_38 <= 4
0 <= sv_39 <= 4
0 <= sv_4 <= 4
0 <= sv_5 <= 4
0 <= sv_6 <= 4
0 <= sv_7 <= 4
0 <= sv_8 <= 4
0 <= sv_9 <= 4
Generals
sv_0
sv_1
sv_10
sv_11
sv_12
sv_13
sv_14
sv_15
sv_16
sv_17
sv_18
sv_19
sv_2
sv_20
sv_21
sv_22
sv_23
sv_24
sv_25
sv_26
sv_27
sv_28
sv_29
sv_3
sv_30
sv_31
sv_32
sv_33
sv_34
sv_35
sv_36
sv_37
sv_38
sv_39
sv_4
sv_5
sv_6
sv_7
sv_8
sv_9
Binaries
yv_0_0
yv_0_1
yv_0_2
yv_0_3
yv_10_0
yv_10_1
yv_10_2
yv_10_3
yv_11_0
yv_11_1
yv_11_2
yv_11_3
yv_12_0
yv_12_1
yv_12_2
yv_12_3
yv_13_0
yv_13_1
yv_13_2
yv_13_3
yv_14_0
yv_14_1
yv_14_2
yv_14_3
yv_15_0
yv_15_1
yv_15_2
yv_15_3
yv_16_0
yv_16_1
yv_16_2
yv_16_3
yv_17_0
yv_17_1
yv_17_2
yv_17_3
yv_18_0
yv_18_1
yv_18_2
yv_18_3
yv_19_0
yv_19_1
yv_19_2
yv_19_3
yv_1_0
yv_1_1
yv_1_2
yv_1_3
yv_20_0
yv_20_1
yv_20_2
yv_20_3
yv_21_0
yv_21_1
yv_21_2
yv_21_3
yv_22_0
yv_22_1
yv_22_2
yv_22_3
yv_23_0
yv_23_1
yv_23_2
yv_23_3
yv_24_0
yv_24_1
yv_24_2
yv_24_3
yv_25_0
yv_25_1
yv_25_2
yv_25_3
yv_26_0
yv_26_1
yv_26_2
yv_26_3
yv_27_0
yv_27_1
yv_27_2
yv_27_3
yv_28_0
yv_28_1
yv_28_2
yv_28_3
yv_29_0
yv_29_1
yv_29_2
yv_29_3
yv_2_0
yv_2_1
yv_2_2
yv_2_3
yv_30_0
yv_30_1
yv_30_2
yv_30_3
yv_31_0
yv_31_1
yv_31_2
yv_31_3
yv_32_0
yv_32_1
yv_32_2
yv_32_3
yv_33_0
yv_33_1
yv_33_2
yv_33_3
yv_34_0
yv_34_1
yv_34_2
yv_34_3
yv_35_0
yv_35_1
yv_35_2
yv_35_3
yv_36_0
yv_36_1
yv_36_2
yv_36_3
yv_37_0
yv_37_1
yv_37_2
yv_37_3
yv_38_0
yv_38_1
yv_38_2
yv_38_3
yv_39_0
yv_39_1
yv_39_2
yv_39_3
yv_3_0
yv_3_1
yv_3_2
yv_3_3
yv_4_0
yv_4_1
yv_4_2
yv_4_3
yv_5_0
yv_5_1
yv_5_2
yv_5_3
yv_6_0
yv_6_1
yv_6_2
yv_6_3
yv_7_0
yv_7_1
yv_7_2
yv_7_3
yv_8_0
yv_8_1
yv_8_2
yv_8_3
yv_9_0
yv_9_1
yv_9_2
yv_9_3
End
